7764
48, 24, 5, 15, 6, 4, 25, 12, 28, 27, 26, 47, 13, 14, 52, 11, 51, 33, 43, 10, 9, 8, 41, 19, 45, 32, 49, 1, 22, 31, 21, 30, 42, 2, 7, 17, 3, 18, 23, 20, 50, 29, 16, 46, 44, 34, 35, 36, 39, 40, 37, 38
